CMPL model generation - running

CMPL version: 1.11.0
Authors: Thomas Schleiff, Mike Steglich
Distributed under the GPLv3 

create model instance ...
write model instance ...
CMPL model generation - finished

Solver - running


Welcome to IBM(R) ILOG(R) CPLEX(R) Interactive Optimizer 12.7.1.0
  with Simplex, Mixed Integer & Barrier Optimizers
5725-A06 5725-A29 5724-Y48 5724-Y49 5724-Y54 5724-Y55 5655-Y21
Copyright IBM Corp. 1988, 2017.  All Rights Reserved.

Type 'help' for a list of available commands.
Type 'help' followed by a command name for more
information on commands.

CPLEX> Specified objective sense: MINIMIZE
Selected objective  name:  line[1]
Selected RHS        name:  RHS
Selected bound      name:  BOUND
Problem '/tmp/cmpl.T23550.mps' read.
Read time = 0.05 sec. (8.16 ticks)
CPLEX> CPXPARAM_Read_APIEncoding                        "UTF-8"
Tried aggregator 3 times.
MIP Presolve eliminated 19294 rows and 30811 columns.
MIP Presolve modified 340 coefficients.
Aggregator did 598 substitutions.
Reduced MIP has 2463 rows, 3184 columns, and 9308 nonzeros.
Reduced MIP has 3016 binaries, 0 generals, 0 SOSs, and 0 indicators.
Presolve time = 0.05 sec. (40.25 ticks)
Found incumbent of value 424.453407 after 0.08 sec. (57.15 ticks)
Probing fixed 5 vars, tightened 0 bounds.
Probing time = 0.01 sec. (4.06 ticks)
Tried aggregator 1 time.
MIP Presolve eliminated 0 rows and 5 columns.
MIP Presolve modified 21 coefficients.
Reduced MIP has 2463 rows, 3179 columns, and 9298 nonzeros.
Reduced MIP has 3179 binaries, 0 generals, 0 SOSs, and 0 indicators.
Presolve time = 0.01 sec. (7.88 ticks)
Probing time = 0.01 sec. (2.66 ticks)
Clique table members: 5485.
MIP emphasis: balance optimality and feasibility.
MIP search method: dynamic search.
Parallel mode: none, using 1 thread.
Root relaxation solution time = 0.00 sec. (4.22 ticks)

        Nodes                                         Cuts/
   Node  Left     Objective  IInf  Best Integer    Best Bound    ItCnt     Gap

*     0+    0                          424.4534      -50.3888           111.87%
      0     0       38.1179    18      424.4534       38.1179       77   91.02%
*     0+    0                           75.8722       38.1179            49.76%
*     0+    0                           38.6322       38.1179             1.33%
*     0+    0                           38.6082       38.6039             0.01%
      0     0        cutoff             38.6082       38.6039       80    0.01%
Elapsed time = 0.14 sec. (100.73 ticks, tree = 0.01 MB, solutions = 4)

Root node processing (before b&c):
  Real time             =    0.15 sec. (102.45 ticks)
Sequential b&c:
  Real time             =    0.00 sec. (0.00 ticks)
                          ------------
Total (root+branch&cut) =    0.15 sec. (102.45 ticks)

Solution pool: 4 solutions saved.

MIP - Integer optimal solution:  Objective =  3.8608170000e+01
Solution time =    0.15 sec.  Iterations = 80  Nodes = 0
Deterministic time = 102.55 ticks  (691.88 ticks/sec)

CPLEX> Incumbent solution written to file '/tmp/cmpl.T23550.gsol'.
CPLEX> 
CMPL: Time used for model generation: 0 seconds
CMPL: Time used for solving the model: 1 seconds


Solution written to ASCII file: results/output_generated_conf_0.1/2017-06-05-4/fair-nonlinear.sol

Solver - finished
